 Compiled for darwin_x86_64_ifort14 on Tue Mar 17 04:46:41 2015
 from source code version 17dc085fd1b9+ Castep61_branch 2013-03-13
 using fast optimisation, fftw3 FFTs and mkl10 LAPACK and BLAS.

 ******************************* User Parameters *******************************
comment              : CASTEP calculation from Materials Studio # comment string (S)
iprint               : 3                                        # verbosity control (I)
continuation         : default                                  # continuation filename (S)
task                 : SinglePoint                              # type of calculation (S)
calculatestress      : F                                        # stress on/off (L)
calculatedensdiff    : F                                        # calculate density difference based on atoms (L)
calculateelf         : F                                        # ELF on/off (L)
calculatehirshfeld   : T                                        # Hirshfeld on/off (L)
pagewvfns            : 0                                        # page wavefunctions to disk (I)
optstrategy          : Speed                                    # optimization strategy (S)
xcfunctional         : PBE                                      # exchange-correlation functional (S)
cutoffenergy         : 380.0000000 ev                           # maximum energy of planewaves in basis set (P)
gridscale            : 1.7500000                                # standard grid size (R)
finitebasiscorr      : 0                                        # finite basis set correction (S)
spin                 : 4.0000000                                # net spin (R)
spinpolarized        : T                                        # spin polarized (L)
nextrabands          : 39                                       # number of extra bands (I)
metalsmethod         : dm                                       # treatment of metals or finite temperature insulator (S)
elecenergytol        : 0.0000010 ev                             # total energy per atom convergence tolerance (P)
maxscfcycles         : 6000                                     # maximum SCF cycles (I)
spinfix              : 6                                        # number of fixed spin iterations (I)
fixoccupancy         : F                                        # treat system as an insulator (L)
smearingwidth        : 0.1000000 ev                             # width of metal smearing (P)
numdumpcycles        : 0                                        # frequency of wavefunction dumps (I)
mixingscheme         : Pulay                                    # density mixing scheme (S)
mixhistorylength     : 20                                       # number of densities in mixing scheme (I)
mixchargeamp         : 0.5000000                                # charge density mixing amplitude (R)
mixchargegmax        : 1.5000000 1/ang                          # maximum G-vector in charge mixing scheme (P)
mixspinamp           : 2.0000000                                # spin density mixing amplitude (R)
mixspingmax          : 1.5000000 1/ang                          # maximum G-vector in spin mixing scheme (P)
popncalculate        : T                                        # population analysis on/off (L)
popnbondcutoff       : 3.0000000 ang                            # population analysis bond cutoff (P)
pdoscalculateweights : T                                        # partial DOS analysis on/off (L)

Reading continuation data from model file GDY_111_Fe_U.check

 Pseudo atomic calculation performed for C 2s2 2p2

 Converged in 17 iterations to a total energy of -145.8263 eV

 Pseudo atomic calculation performed for Fe 3d6 4s2

[...]

Initialising basis set for model.
Initialising basis set.

Standard grid dimensions:  54  54  60
Fine grid dimensions:  54  54  60

 ******************************* User Parameters *******************************
comment              : CASTEP calculation from Materials Studio # comment string (S)
iprint               : 3                                        # verbosity control (I)
continuation         : default                                  # continuation filename (S)
task                 : SinglePoint                              # type of calculation (S)
calculatestress      : F                                        # stress on/off (L)
calculatedensdiff    : F                                        # calculate density difference based on atoms (L)
calculateelf         : F                                        # ELF on/off (L)
calculatehirshfeld   : T                                        # Hirshfeld on/off (L)
pagewvfns            : 0                                        # page wavefunctions to disk (I)
optstrategy          : Speed                                    # optimization strategy (S)
xcfunctional         : PBE                                      # exchange-correlation functional (S)
cutoffenergy         : 380.0000000 ev                           # maximum energy of planewaves in basis set (P)
gridscale            : 1.7500000                                # standard grid size (R)
finitebasiscorr      : 0                                        # finite basis set correction (S)
spin                 : 4.0000000                                # net spin (R)
nextrabands          : 39                                       # number of extra bands (I)
metalsmethod         : dm                                       # treatment of metals or finite temperature insulator (S)
elecenergytol        : 0.0000010 ev                             # total energy per atom convergence tolerance (P)
maxscfcycles         : 6000                                     # maximum SCF cycles (I)
spinfix              : 6                                        # number of fixed spin iterations (I)
fixoccupancy         : F                                        # treat system as an insulator (L)
smearingwidth        : 0.1000000 ev                             # width of metal smearing (P)
numdumpcycles        : 0                                        # frequency of wavefunction dumps (I)
mixingscheme         : Pulay                                    # density mixing scheme (S)
mixhistorylength     : 20                                       # number of densities in mixing scheme (I)
mixchargeamp         : 0.5000000                                # charge density mixing amplitude (R)
mixchargegmax        : 1.5000000 1/ang                          # maximum G-vector in charge mixing scheme (P)
mixspinamp           : 2.0000000                                # spin density mixing amplitude (R)
mixspingmax          : 1.5000000 1/ang                          # maximum G-vector in spin mixing scheme (P)
popncalculate        : T                                        # population analysis on/off (L)
popnbondcutoff       : 3.0000000 ang                            # population analysis bond cutoff (P)
pdoscalculateweights : T                                        # partial DOS analysis on/off (L)

 Calculation parallelised over 4 processes.
 Data is distributed by k-point(4-way)

 ************************************ Title ************************************
 CASTEP calculation from Materials Studio

 ***************************** General Parameters ******************************

 output verbosity                               : extreme (3)
 continuing from                                : GDY_111_Fe_U.check
 write checkpoint data to                       : GDY_111_Fe_U.check
 type of calculation                            : single point energy
 stress calculation                             : off
 density difference calculation                 : off
 electron localisation func (ELF) calculation   : off
 Hirshfeld analysis                             : on
 unlimited duration calculation
 timing information                             : on
 write final potential to formatted file        : off
 write final density to formatted file          : off
 write BibTeX reference list                    : on

 output         length unit                     : A
 output           mass unit                     : amu
 output           time unit                     : ps
 output         charge unit                     : e
 output         energy unit                     : eV
 output          force unit                     : eV/A
 output       velocity unit                     : A/ps
 output       pressure unit                     : GPa
 output     inv_length unit                     : 1/A
 output      frequency unit                     : cm-1
 output force constant unit                     : eV/A**2
 output         volume unit                     : A**3
 output   IR intensity unit                     : (D/A)**2/amu
 output         dipole unit                     : D
 output         efield unit                     : eV/A/e
 output        entropy unit                     : J/mol/K

 wavefunctions paging                           : none
 random number generator seed                   :  135622536
 data distribution                              : optimal for this architecture
 optimization strategy                          : maximize speed(+++)

 *********************** Exchange-Correlation Parameters ***********************

 using functional                               : Perdew Burke Ernzerhof
 Divergence correction                          : off
 DFT+D: Semi-empirical dispersion correction    : off

 ************************* Pseudopotential Parameters **************************

 pseudopotential representation                 : reciprocal space
 <beta|phi> representation                      : reciprocal space

 **************************** Basis Set Parameters *****************************

 plane wave basis set cut-off                   :   380.0000   eV
 size of standard grid                          :     1.7500
 size of   fine   gmax                          :    17.4771   1/A
 largest prime factor in FFT                    :          5
 finite basis set correction                    : none

 **************************** Electronic Parameters ****************************

 number of  electrons                           :  80.00
 net charge of system                           :  0.000
 net spin   of system                           :  4.000
 number of  up  spins                           :  42.00
 number of down spins                           :  38.00
 treating system as spin-polarized
 number of bands                                :         81

 ********************* Electronic Minimization Parameters **********************

 Method: Treating system as metallic with density mixing treatment of electrons,
         and number of  SD  steps               :          1
         and number of  CG  steps               :          4

 total energy / atom convergence tol.           : 0.1000E-05   eV
 eigen-energy convergence tolerance             : 0.1000E-05   eV
 max force / atom convergence tol.              : ignored
 convergence tolerance window                   :          3   cycles
 max. number of SCF cycles                      :       6000
[...]
 * C         6      0.00000      0.00000      0.00000 *
 * C         7      0.00000      0.00000      0.00000 *
 * C         8      0.00000      0.00000      0.00000 *
 * C         9      0.00000      0.00000      0.00000 *
 * C        10      0.00000      0.00000      0.00000 *
 * C        11      0.00000      0.00000      0.00000 *
 * C        12      0.00000      0.00000      0.00000 *
 * C        13      0.00000      0.00000      0.00000 *
 * C        14      0.00000      0.00000      0.00000 *
 * C        15      0.00000      0.00000      0.00000 *
 * C        16      0.00000      0.00000      0.00000 *
 * C        17      0.00000      0.00000      0.00000 *
 * C        18      0.00000      0.00000      0.00000 *
 * Fe        1      0.00000      0.00000      0.00000 *

 ************** DM correction to forces ***************
 *            Cartesian components (eV/A)             *
 *                   x            y            z      *
 * C         1      0.00000      0.00000      0.00000 *
 * C         2      0.00000      0.00000      0.00000 *
 * C         3      0.00000      0.00000      0.00000 *
 * C         4      0.00000      0.00000      0.00000 *
 * C         5      0.00000      0.00000      0.00000 *
 * C         6      0.00000      0.00000      0.00000 *
 * C         7      0.00000      0.00000      0.00000 *
 * C         8      0.00000      0.00000      0.00000 *
 * C         9      0.00000      0.00000      0.00000 *
 * C        10      0.00000      0.00000      0.00000 *
 * C        11      0.00000      0.00000      0.00000 *
 * C        12      0.00000      0.00000      0.00000 *
 * C        13      0.00000      0.00000      0.00000 *
 * C        14      0.00000      0.00000      0.00000 *
 * C        15      0.00000      0.00000      0.00000 *
 * C        16      0.00000      0.00000      0.00000 *
 * C        17      0.00000      0.00000      0.00000 *
 * C        18      0.00000      0.00000      0.00000 *
 * Fe        1      0.00000      0.00000      0.00000 *

 ************** Hubbard potential forces **************
 *            Cartesian components (eV/A)             *
 *                   x            y            z      *
 * C         1      0.00040     -0.00031     -0.00000 *
 * C         2      0.00002     -0.00002      0.00000 *
 * C         3      0.00000     -0.00000      0.00000 *
 * C         4     -0.00097      0.00278      0.00000 *
 * C         5     -0.05389     -0.09495      0.00022 *
 * C         6     -0.00227     -0.00800      0.00002 *
 * C         7     -0.00001      0.00002      0.00000 *
 * C         8     -0.00021      0.00007     -0.00000 *
 * C         9      0.00026     -0.00008     -0.00000 *
 * C        10      0.00007     -0.00051     -0.00000 *
 * C        11      0.00001     -0.00003      0.00000 *
 * C        12      0.00000     -0.00000      0.00000 *
 * C        13     -0.00001      0.00002      0.00000 *
 * C        14      0.00005      0.00023     -0.00000 *
 * C        15     -0.00006     -0.00028     -0.00000 *
 * C        16     -0.00191      0.00219      0.00000 *
 * C        17      0.10731     -0.00085      0.00022 *
 * C        18      0.00772     -0.00193      0.00002 *
 * Fe        1      0.17745     -0.30570      0.00164 *

 *********************** Forces ***********************
 *            Cartesian components (eV/A)             *
 *                   x            y            z      *
 * C         1      1.02646      0.48668     -0.00046 *
 * C         2     -1.28740     -0.69934     -0.00015 *
 * C         3      1.22687      0.72285     -0.00008 *
 * C         4     -0.10104     -1.14123      0.00165 *
 * C         5      0.14253     -6.50163      0.00494 *
 * C         6     -3.75706      1.35338     -0.00061 *
 * C         7      0.34600     -0.46021     -0.00011 *
 * C         8     -0.02700      1.10302     -0.00007 *
 * C         9      0.38009     -0.76340      0.00045 *
 * C        10     -0.93357     -0.64563     -0.00046 *
 * C        11      1.24911      0.76512     -0.00015 *
 * C        12     -1.23929     -0.70118     -0.00008 *
 * C        13      0.22660     -0.52995     -0.00011 *
 * C        14     -0.94077      0.57482     -0.00007 *
 * C        15      0.46104     -0.71574      0.00046 *
 * C        16      1.02735     -0.47389      0.00164 *
 * C        17      5.41380     -3.32944      0.00473 *
 * C        18      0.67678      3.88996     -0.00064 *
 * Fe        1     -3.89052      7.06583     -0.01090 *

 Pseudo atomic calculation performed for C 2s2 2p2

[...]

 Pseudo atomic calculation performed for Fe 3d6 4s2

 Converged in 35 iterations to a total energy of -855.8846 eV

Charge spilling parameter for spin component 1 = 1.20%
Charge spilling parameter for spin component 2 = 1.30%
The total projected populations are: spin up   41.169   0.000, spin down   38.831   0.000, total   80.000   0.000

     Atomic Populations (Mulliken)
Species   Ion     s      p      d      f     Total  Charge (e)  Spin (hbar)
  C        1     1.05   3.00   0.00   0.00   4.05    -0.05       -0.04
  C        2     0.98   3.04   0.00   0.00   4.02    -0.02       -0.01
  C        3     0.95   3.11   0.00   0.00   4.06    -0.06       -0.02
  C        4     1.06   3.06   0.00   0.00   4.12    -0.12       -0.01
  C        5     1.10   3.22   0.00   0.00   4.32    -0.32       -0.02
  C        6     1.03   3.24   0.00   0.00   4.27    -0.27       -0.03
  C        7     1.05   2.99   0.00   0.00   4.04    -0.04       -0.02
  C        8     0.99   2.98   0.00   0.00   3.97     0.03       -0.02
  C        9     0.94   3.14   0.00   0.00   4.08    -0.08       -0.01
  C       10     1.05   3.00   0.00   0.00   4.05    -0.05       -0.04
  C       11     0.98   3.04   0.00   0.00   4.02    -0.02       -0.01
  C       12     0.95   3.11   0.00   0.00   4.06    -0.06       -0.02
  C       13     1.05   2.99   0.00   0.00   4.04    -0.04       -0.02
  C       14     0.99   2.98   0.00   0.00   3.97     0.03       -0.02
  C       15     0.94   3.14   0.00   0.00   4.08    -0.08       -0.01
  C       16     1.06   3.06   0.00   0.00   4.12    -0.12       -0.01
  C       17     1.10   3.22   0.00   0.00   4.32    -0.32       -0.02
  C       18     1.03   3.23   0.00   0.00   4.26    -0.26       -0.03
  Fe       1     0.05  -0.53   6.62   0.00   6.14     1.86        1.52

            Bond              Population        Spin       Length (A)
         C 5  -- C 6               1.87         0.02          1.22858
         C 8  -- C 9               1.92         0.01          1.22858
         C 2  -- C 3               1.89         0.01          1.22858
         C 14 -- C 15              1.92         0.01          1.22858
         C 11 -- C 12              1.89         0.01          1.22858
         C 17 -- C 18              1.87         0.02          1.22858
         C 3  -- C 12              1.21        -0.01          1.34304
         C 6  -- C 15              1.24         0.00          1.34304
         C 9  -- C 18              1.24         0.00          1.34304
         C 7  -- C 8               1.10        -0.00          1.40150
         C 13 -- C 14              1.10        -0.00          1.40150
         C 16 -- C 17              1.13         0.01          1.40150
         C 1  -- C 2               1.13        -0.01          1.40150
         C 10 -- C 11              1.13        -0.01          1.40150
         C 4  -- C 5               1.13         0.01          1.40150
         C 4  -- C 10              1.01         0.01          1.43129
         C 1  -- C 16              1.01         0.01          1.43129
         C 1  -- C 13              1.01         0.01          1.43129
         C 7  -- C 13              1.04         0.00          1.43129
         C 7  -- C 10              1.01         0.01          1.43129
         C 4  -- C 16              1.11         0.01          1.43129
         C 5  -- Fe 1             -0.16        -0.00          1.73643
         C 17 -- Fe 1             -0.16        -0.00          1.74168
         C 6  -- Fe 1             -0.19        -0.01          2.02821
         C 18 -- Fe 1             -0.19        -0.01          2.03465
         C 4  -- Fe 1             -0.29        -0.03          2.33414
         C 16 -- Fe 1             -0.29        -0.03          2.33611
         C 8  -- C 13             -0.21         0.00          2.45331
         C 8  -- C 10             -0.20         0.00          2.45331
         C 5  -- C 10             -0.20         0.00          2.45331
         C 7  -- C 14             -0.21         0.00          2.45331
         C 1  -- C 17             -0.20         0.00          2.45331
         C 1  -- C 14             -0.20         0.00          2.45331
         C 4  -- C 11             -0.22         0.00          2.45331
         C 7  -- C 11             -0.21         0.00          2.45331
         C 4  -- C 17             -0.18        -0.00          2.45331
         C 2  -- C 16             -0.22         0.00          2.45331
         C 2  -- C 13             -0.21         0.00          2.45331
         C 5  -- C 16             -0.18        -0.00          2.45331
         C 10 -- C 16             -0.18         0.00          2.47906
         C 10 -- C 13             -0.18         0.00          2.47906
         C 13 -- C 16             -0.17         0.00          2.47906
         C 1  -- C 7              -0.18         0.00          2.47906
         C 1  -- C 4              -0.18         0.00          2.47906
         C 4  -- C 7              -0.17         0.00          2.47906
         C 5  -- C 15             -0.12         0.00          2.57162
         C 2  -- C 12             -0.13         0.00          2.57162
         C 6  -- C 14             -0.11         0.00          2.57162
         C 3  -- C 11             -0.13         0.00          2.57162
         C 8  -- C 18             -0.11         0.00          2.57162
         C 9  -- C 17             -0.12         0.00          2.57162
         C 7  -- C 9              -0.11         0.00          2.63007
         C 4  -- C 6              -0.10         0.00          2.63007
         C 13 -- C 15             -0.11         0.00          2.63007
         C 1  -- C 3              -0.11         0.01          2.63007
         C 16 -- C 18             -0.10         0.00          2.63007
         C 10 -- C 12             -0.11         0.01          2.63007
         C 8  -- C 14             -0.08         0.00          2.83279
         C 8  -- C 11             -0.07        -0.00          2.83279
         C 5  -- C 11             -0.07        -0.00          2.83279
         C 2  -- C 14             -0.07        -0.00          2.83279
         C 2  -- C 17             -0.07        -0.00          2.83279
         C 5  -- C 17             -0.04         0.00          2.83279
         C 1  -- C 10             -0.08        -0.00          2.86258
         C 7  -- C 16             -0.08        -0.00          2.86258
         C 4  -- C 13             -0.08        -0.00          2.86258
         C 15 -- Fe 1             -0.16        -0.00          2.96111
         C 9  -- Fe 1             -0.16        -0.00          2.96698

All bands spilling parameter for spin component 1 =25.90%
All bands spilling parameter for spin component 2 =25.75%
 Species     1,  Atom     1  :  C
  Fractional coordinates :
                                        0.151206870   0.151206870   0.500000000
  Cartesian coordinates (A) :
                                        1.239532376   0.715644351   4.999606520
  Free atom total nuclear charge (e) :
                                        4.000000000
  Free atom total electronic charge on real space grid (e) :
                                       -4.000026988
  SCF total electronic charge on real space grid (e) :
                                      -80.001151010
  SCF total electronic spin on real space grid (hbar) :
                                        1.168535719
  cut-off radius for r-integrals :
                                       10.000000000
  Free atom volume (Bohr**3) :
                                       38.965556604
  Hirshfeld total electronic charge (e) :
                                       -3.999544005
  Hirshfeld net atomic charge (e) :
                                        0.000455995
  Hirshfeld net atomic spin (hbar) :
                                       -0.030283411
  Hirshfeld atomic volume (Bohr**3) :
                                       32.819759078
  Hirshfeld / free atomic volume :
                                        0.842276152

 Species     1,  Atom     2  :  C
  Fractional coordinates :
                                        0.299266436   0.299266436   0.500000000
  Cartesian coordinates (A) :
                                        2.453264433   1.416392881   4.999606520
  Free atom total nuclear charge (e) :
                                        4.000000000
  Free atom total electronic charge on real space grid (e) :
                                       -4.000026932
  SCF total electronic charge on real space grid (e) :
                                      -80.001151010
  SCF total electronic spin on real space grid (hbar) :
                                        1.168535719
  cut-off radius for r-integrals :
                                       10.000000000
  Free atom volume (Bohr**3) :
                                       38.965519718
  Hirshfeld total electronic charge (e) :
                                       -4.035833259
  Hirshfeld net atomic charge (e) :
                                       -0.035833259
  Hirshfeld net atomic spin (hbar) :
                                       -0.014180135
  Hirshfeld atomic volume (Bohr**3) :
                                       32.679482016
  Hirshfeld / free atomic volume :
                                        0.838676919

[...]

 Species     2,  Atom     1  :  Fe
  Fractional coordinates :
                                        0.788482663   0.210836778   0.499810305
  Cartesian coordinates (A) :
                                        6.463659931  -1.736064403   4.997709723
  Free atom total nuclear charge (e) :
                                        8.000000000
  Free atom total electronic charge on real space grid (e) :
                                       -8.000001140
  SCF total electronic charge on real space grid (e) :
                                      -80.001151010
  SCF total electronic spin on real space grid (hbar) :
                                        1.168535719
  cut-off radius for r-integrals :
                                       11.000000000
  Free atom volume (Bohr**3) :
                                      104.794137864
  Hirshfeld total electronic charge (e) :
                                       -7.686521106
  Hirshfeld net atomic charge (e) :
                                        0.313478894
  Hirshfeld net atomic spin (hbar) :
                                        1.390826987
  Hirshfeld atomic volume (Bohr**3) :
                                       77.277887840
  Hirshfeld / free atomic volume :
                                        0.737425675

     Hirshfeld Analysis
Species   Ion     Hirshfeld Charge (e)  Spin (hbar)
  C        1                 0.00       -0.03
  C        2                -0.04       -0.01
  C        3                -0.04       -0.02
  C        4                 0.01       -0.00
  C        5                -0.04        0.01
  C        6                -0.01       -0.01
  C        7                 0.00       -0.02
  C        8                -0.00       -0.02
  C        9                -0.03       -0.01
  C       10                 0.00       -0.03
  C       11                -0.04       -0.01
  C       12                -0.04       -0.02
  C       13                 0.00       -0.02
  C       14                -0.00       -0.02
  C       15                -0.03       -0.01
  C       16                 0.01       -0.00
  C       17                -0.04        0.01
  C       18                -0.01       -0.01
  Fe       1                 0.31        1.39

Writing model to GDY_111_Fe_U.check

Writing analysis data to GDY_111_Fe_U.castep_bin

 A BibTeX formatted list of references used in this run has been written to
 GDY_111_Fe_U.bib

Initialisation time =     17.01 s
Calculation time    =   1604.27 s
Finalisation time   =      4.55 s
Total time          =   1625.83 s

Overall parallel efficiency rating: Excellent (98%)

Data was distributed by:-
k-point (4-way); efficiency rating: Excellent (99%)

Parallel notes:
1) k-points were fully distributed.

Efficiencies are estimated from the ratio of communication time to total time,
and do not include all the effects of serial operations or load imbalance.